50

100 3 311
99 14 350
97 28 296
97 22 380
97 10 351
93 21 346
93 18 300
92 27 400
92 16 395
88 20 293
83 12 335
83 22 350
79 11 363
76 15 307
76 8 270
75 18 348
72 12 361
71 14 359
70 10 354
69 1 336
67 16 223
66 15 201
63 11 324
62 4 289
62 18 200
61 2 379
61 14 397
51 16 389
50 8 188
44 14 133
44 6 320
43 9 284
43 2 234
40 4 162
39 8 236
37 2 339
37 11 343
30 7 198
23 3 101
20 5 299
19 1 389
18 3 212
17 1 215
15 4 362
14 4 201
13 2 342
13 3 64
12 2 171
8 1 44
8 3 205
